50, 11254
409, 378
542, 606
863, 931
177, 85
226, 157
30, 30
117, 19
9, 83
157, 187
514, 523
990, 1089
694, 665
379, 319
406, 328
692, 660
327, 395
74, 106
842, 753
618, 605
113, 22
71, 107
95, 24
959, 895
108, 137
626, 693
970, 994
36, 40
386, 415
478, 432
917, 818
189, 144
259, 297
248, 273
50, 29
674, 742
817, 883
437, 393
38, 133
714, 666
738, 651
654, 656
329, 402
831, 851
631, 640
590, 588
541, 498
234, 194
456, 437
795, 804
684, 773
